unsat
(define-fun f ((x (_ BitVec 64))) (_ BitVec 64) (let ((_let_1 (bvnot x))) (if0 (bvand #b0000000000000000000000000000000000000000000000000000000000000001 _let_1) (shr16 (shl1 (shr16 _let_1))) (bvxor #b0000000000000000000000000000000000000000000000000000000000000001 (shr16 x)))))
0.48user 0.00system 0:00.49elapsed 99%CPU (0avgtext+0avgdata 34816maxresident)k
0inputs+8outputs (0major+3347minor)pagefaults 0swaps
